min: 1 x1 + 1 x2 + 1 x3 + 1 x4 + 1 x5 + 1 x6 + 1 x7 + 1 x8 + 1 x9 + 1 x10 + 1 x11 + 1 x12 + 1 x13 + 1 x14 + 1 x15 + 1 x16 + 1 x17 + 1 x18 + 1 x19 + 1 x20;

x5 + x2 >= 1;
x14 + x7 + x2 + x15 + x8 + x10 >= 1;
x6 + x5 + x13 >= 1;
x4 + x20 + x13 + x18 + x2 + x3 + x17 + x11 >= 1;
x13 + x18 + x3 + x6 >= 1;
x3 + x1 + x15 + x19 + x16 + x8 + x18 >= 1;
x8 + x14 + x7 + x18 + x1 + x15 + x12 + x9 >= 1;
x1 + x11 + x4 + x6 + x2 + x3 + x17 + x9 >= 1;
x13 + x14 + x5 + x7 + x16 + x2 + x8 + x20 >= 1;
x10 >= 1;
x17 >= 1;
x13 >= 1;
x18 + x12 + x11 + x8 + x7 + x10 + x13 + x19 >= 1;
x1 + x4 + x3 + x7 + x10 + x13 >= 1;
x16 >= 1;
x11 + x18 + x8 >= 1;
x2 + x16 + x6 + x15 >= 1;
x10 >= 1;
x2 + x11 >= 1;
x5 + x10 + x1 + x4 + x19 + x6 + x13 >= 1;
x1 + x10 >= 1;
x18 + x13 + x19 + x20 + x3 + x6 + x14 + x7 >= 1;
x15 + x11 + x4 + x19 + x12 + x3 >= 1;
x7 + x17 >= 1;
x8 >= 1;
x20 + x12 + x5 + x6 >= 1;
x12 >= 1;
x2 + x8 + x12 + x10 + x1 + x18 + x11 + x5 >= 1;
x4 + x17 + x8 + x5 + x19 + x10 >= 1;
x19 + x15 + x5 + x9 + x7 + x11 + x17 >= 1;
x12 + x1 + x6 + x18 + x13 + x8 >= 1;
x11 + x10 + x20 + x3 + x1 >= 1;
x13 + x10 + x12 + x15 + x9 + x14 + x3 >= 1;
x2 + x3 + x9 + x15 + x8 + x7 + x17 >= 1;
x16 + x13 + x8 + x20 >= 1;
x17 + x15 + x10 + x9 + x3 + x13 + x1 + x4 >= 1;
x20 + x8 + x1 + x6 + x11 + x17 + x5 >= 1;
x9 + x18 + x12 + x4 + x20 >= 1;
x4 + x1 + x15 + x6 + x14 + x12 + x18 + x10 >= 1;
x17 + x15 + x2 + x4 + x3 + x8 + x9 >= 1;
x1 + x19 + x15 + x4 + x11 + x20 >= 1;
x16 + x15 + x8 + x12 >= 1;
x20 + x4 + x6 + x1 + x5 + x13 + x3 + x10 >= 1;
x8 >= 1;
x18 + x13 + x5 + x20 + x9 + x17 + x19 + x12 >= 1;
x10 + x14 + x1 >= 1;
x6 + x15 + x14 + x2 >= 1;
x8 + x13 + x20 + x12 + x10 + x17 + x15 >= 1;
x18 + x7 + x14 >= 1;
x20 + x7 + x16 + x17 + x13 >= 1;
x13 + x7 >= 1;
x17 + x14 + x20 + x9 + x12 >= 1;
x17 + x15 + x2 + x8 + x3 >= 1;
x8 + x12 + x5 + x16 + x2 + x14 >= 1;
x13 + x16 + x6 + x14 + x5 + x10 >= 1;
x2 + x3 + x12 + x15 + x19 + x11 + x9 + x8 >= 1;
x20 + x16 + x1 >= 1;
x15 + x7 >= 1;
x4 + x10 >= 1;
x16 + x20 + x1 + x6 + x14 + x9 >= 1;

bin x1, x2, x3, x4, x5, x6, x7, x8, x9, x10, x11, x12, x13, x14, x15, x16, x17, x18, x19, x20;
